WARNING: for repeatability, setting FPU to use double precision
============================[ Problem Statistics ]=============================
|                                                                             |
|  Number of variables:        205151                                         |
|  Number of clauses:          473079                                         |
|  Parse time:                   0.15 s                                       |
|                                                                             |
============================[ Search Statistics ]==============================
| Conflicts |          ORIGINAL         |          LEARNT          | Progress |
|           |    Vars  Clauses Literals |    Limit  Clauses Lit/Cl |          |
===============================================================================
|       100 |  112914   453426  1018366 |   166256      100     13 | 44.961 % |
===============================================================================
restarts              : 2
conflicts             : 184            (639 /sec)
decisions             : 4972           (0.00 % random) (17263 /sec)
propagations          : 987872         (3429897 /sec)
conflict literals     : 3170           (1.55 % deleted)
Memory used           : 52.00 MB
CPU time              : 0.288018 s

SATISFIABLE
